This is Ipopt version 3.14.14, running with linear solver MUMPS 5.6.2.

Number of nonzeros in equality constraint Jacobian...:   599894
Number of nonzeros in inequality constraint Jacobian.:        0
Number of nonzeros in Lagrangian Hessian.............:   471941

Total number of variables............................:   175978
                     variables with only lower bounds:        0
                variables with lower and upper bounds:        0
                     variables with only upper bounds:        0
Total number of equality constraints.................:   159978
Total number of inequality constraints...............:        0
        inequality constraints with only lower bounds:        0
   inequality constraints with lower and upper bounds:        0
        inequality constraints with only upper bounds:        0

iter    objective    inf_pr   inf_du lg(mu)  ||d||  lg(rg) alpha_du alpha_pr  ls
   0  2.3000000e+02 9.80e+00 3.00e-02  -1.0 0.00e+00    -  0.00e+00 0.00e+00   0
   1  7.1866817e+02 1.17e-13 1.70e+02  -1.0 1.02e+01    -  1.00e+00 1.00e+00h  1
   2  7.1862632e+02 3.47e-10 2.76e-02  -1.0 2.76e-04   2.0 1.00e+00 1.00e+00f  1
   3  5.6870125e+02 3.76e-02 5.57e-03  -3.8 2.00e+00    -  1.00e+00 1.00e+00f  1
   4  5.6875728e+02 5.15e-04 1.80e-05  -3.8 1.96e-01    -  1.00e+00 1.00e+00h  1
   5  5.6875732e+02 1.90e-09 7.16e-11  -5.7 4.95e-04    -  1.00e+00 1.00e+00h  1

Number of Iterations....: 5

                                   (scaled)                 (unscaled)
Objective...............:   5.6875731663492809e+02    5.6875731663492809e+02
Dual infeasibility......:   7.1628516839390146e-11    7.1628516839390146e-11
Constraint violation....:   1.8989497821420009e-09    1.8989497821420009e-09
Variable bound violation:   0.0000000000000000e+00    0.0000000000000000e+00
Complementarity.........:   0.0000000000000000e+00    0.0000000000000000e+00
Overall NLP error.......:   1.8989497821420009e-09    1.8989497821420009e-09


Number of objective function evaluations             = 6
Number of objective gradient evaluations             = 6
Number of equality constraint evaluations            = 6
Number of inequality constraint evaluations          = 0
Number of equality constraint Jacobian evaluations   = 6
Number of inequality constraint Jacobian evaluations = 0
Number of Lagrangian Hessian evaluations             = 5
Total seconds in IPOPT (w/o function evaluations)    =      5.275
Total seconds in NLP function evaluations            =      1.958


Timing Statistics:

OverallAlgorithm....................:     21.396 (sys:     17.325 wall:      7.232)
 PrintProblemStatistics.............:      0.000 (sys:      0.024 wall:      0.002)
 InitializeIterates.................:      0.998 (sys:      0.345 wall:      0.831)
 UpdateHessian......................:      5.548 (sys:      4.939 wall:      1.078)
 OutputIteration....................:      0.003 (sys:      0.002 wall:      0.001)
 UpdateBarrierParameter.............:      0.001 (sys:      0.000 wall:      0.000)
 ComputeSearchDirection.............:      9.508 (sys:      6.771 wall:      4.428)
 ComputeAcceptableTrialPoint........:      5.025 (sys:      5.085 wall:      0.745)
 AcceptTrialPoint...................:      0.000 (sys:      0.000 wall:      0.000)
 CheckConvergence...................:      0.311 (sys:      0.158 wall:      0.148)
PDSystemSolverTotal.................:      9.500 (sys:      6.768 wall:      4.425)
 PDSystemSolverSolveOnce............:      8.904 (sys:      6.165 wall:      4.334)
 ComputeResiduals...................:      0.473 (sys:      0.506 wall:      0.076)
 StdAugSystemSolverMultiSolve.......:      9.755 (sys:      6.492 wall:      5.042)
 LinearSystemScaling................:      0.000 (sys:      0.000 wall:      0.000)
 LinearSystemSymbolicFactorization..:      0.569 (sys:      0.264 wall:      0.341)
 LinearSystemFactorization..........:      0.000 (sys:      0.000 wall:      0.000)
 LinearSystemBackSolve..............:      5.184 (sys:      4.691 wall:      1.125)
 LinearSystemStructureConverter.....:      0.000 (sys:      0.000 wall:      0.000)
  LinearSystemStructureConverterInit:      0.000 (sys:      0.000 wall:      0.000)
QualityFunctionSearch...............:      0.000 (sys:      0.000 wall:      0.000)
TryCorrector........................:      0.000 (sys:      0.000 wall:      0.000)
Task1...............................:      0.000 (sys:      0.000 wall:      0.000)
Task2...............................:      0.000 (sys:      0.000 wall:      0.000)
Task3...............................:      0.000 (sys:      0.000 wall:      0.000)
Task4...............................:      0.000 (sys:      0.000 wall:      0.000)
Task5...............................:      0.000 (sys:      0.000 wall:      0.000)
Task6...............................:      0.000 (sys:      0.000 wall:      0.000)
Function Evaluations................:     10.691 (sys:     10.025 wall:      1.958)
 Objective function.................:      0.010 (sys:      0.004 wall:      0.004)
 Objective function gradient........:      0.003 (sys:      0.003 wall:      0.004)
 Equality constraints...............:      5.001 (sys:      5.080 wall:      0.737)
 Inequality constraints.............:      0.000 (sys:      0.000 wall:      0.000)
 Equality constraint Jacobian.......:      0.136 (sys:      0.001 wall:      0.137)
 Inequality constraint Jacobian.....:      0.000 (sys:      0.000 wall:      0.000)
 Lagrangian Hessian.................:      5.542 (sys:      4.937 wall:      1.076)

EXIT: Optimal Solution Found.
